proyfinal/src/viki/013/experimentInOfficeAgust.take6.output/d491f21a-0b50-4a40-8b5d-a1f3d83ee78d.als.dat
{'cnf.clauses': '118081',
 'cnf.totvars': '69608',
 'conflict literals': '1609',
 'conflicts': '188',
 'decisions': '8365',
 'memused.mb': '18.02',
 'outcome': 'UNSAT',
 'propagations': '283428',
 'restarts': '2',
 'solver.msecs': 51,
 'task.msecs': 101}
