proyfinal/src/viki/013/experimentInOfficeAgust.take6.output/d491f21a-0b50-4a40-8b5d-a1f3d83ee78d.als.out
Reading from standard input... Use '--help' for help.
============================[ Problem Statistics ]=============================
|                                                                             |
|  Number of variables:         69608                                         |
|  Number of clauses:          118081                                         |
|  Parse time:                   0.03 s                                       |
|                                                                             |
============================[ Search Statistics ]==============================
| Conflicts |          ORIGINAL         |          LEARNT          | Progress |
|           |    Vars  Clauses Literals |    Limit  Clauses Lit/Cl |          |
===============================================================================
|       100 |   56390    81896   202803 |    30028       93      8 | 18.989 % |
===============================================================================
restarts              : 2
conflicts             : 188            (3666 /sec)
decisions             : 8365           (0.00 % random) (163124 /sec)
propagations          : 283428         (5527067 /sec)
conflict literals     : 1609           (18.78 % deleted)
Memory used           : 18.02 MB
CPU time              : 0.05128 s

UNSATISFIABLE
